c Reduced graph for r23 generated by Cyril Grelier
p edge 288 3732
e 1 4
e 1 19
e 1 48
e 1 49
e 1 53
e 1 71
e 1 83
e 1 84
e 1 91
e 1 95
e 1 99
e 1 101
e 1 107
e 1 109
e 1 111
e 1 162
e 1 170
e 1 187
e 1 190
e 1 199
e 1 200
e 1 208
e 1 209
e 1 221
e 1 271
e 2 20
e 2 26
e 2 39
e 2 58
e 2 66
e 2 89
e 2 111
e 2 119
e 2 123
e 2 124
e 2 125
e 2 128
e 2 149
e 2 166
e 2 168
e 2 169
e 2 188
e 2 198
e 2 213
e 2 219
e 2 224
e 2 265
e 2 271
e 2 275
e 2 278
e 3 24
e 3 37
e 3 42
e 3 43
e 3 55
e 3 66
e 3 100
e 3 104
e 3 138
e 3 144
e 3 157
e 3 170
e 3 173
e 3 176
e 3 179
e 3 184
e 3 189
e 3 194
e 3 221
e 3 233
e 3 245
e 3 248
e 3 252
e 3 258
e 3 269
e 4 48
e 4 49
e 4 91
e 4 95
e 4 109
e 4 111
e 4 132
e 4 140
e 4 147
e 4 162
e 4 190
e 4 199
e 4 221
e 4 223
e 4 229
e 4 232
e 4 242
e 4 244
e 4 251
e 4 261
e 4 267
e 4 277
e 5 23
e 5 45
e 5 51
e 5 72
e 5 76
e 5 77
e 5 90
e 5 105
e 5 137
e 5 141
e 5 154
e 5 165
e 5 197
e 5 205
e 5 219
e 5 222
e 5 226
e 5 227
e 5 233
e 5 236
e 5 247
e 5 248
e 5 257
e 5 259
e 5 285
e 6 7
e 6 40
e 6 55
e 6 92
e 6 94
e 6 100
e 6 120
e 6 129
e 6 137
e 6 152
e 6 174
e 6 193
e 6 207
e 6 214
e 6 216
e 6 225
e 6 235
e 6 240
e 6 251
e 6 254
e 6 266
e 6 287
e 6 288
e 7 12
e 7 30
e 7 35
e 7 73
e 7 100
e 7 137
e 7 142
e 7 153
e 7 187
e 7 193
e 7 225
e 7 235
e 7 240
e 7 244
e 7 250
e 7 252
e 7 254
e 7 282
e 7 287
e 7 288
e 8 11
e 8 21
e 8 34
e 8 65
e 8 80
e 8 87
e 8 105
e 8 108
e 8 123
e 8 129
e 8 141
e 8 146
e 8 148
e 8 175
e 8 218
e 8 230
e 8 231
e 8 241
e 8 269
e 8 283
e 8 286
e 8 287
e 9 16
e 9 19
e 9 24
e 9 40
e 9 52
e 9 64
e 9 68
e 9 77
e 9 87
e 9 89
e 9 114
e 9 115
e 9 126
e 9 136
e 9 143
e 9 151
e 9 156
e 9 158
e 9 159
e 9 163
e 9 181
e 9 203
e 9 230
e 9 242
e 9 243
e 9 253
e 9 270
e 9 272
e 9 275
e 10 12
e 10 21
e 10 22
e 10 23
e 10 25
e 10 26
e 10 32
e 10 38
e 10 53
e 10 59
e 10 70
e 10 79
e 10 97
e 10 112
e 10 128
e 10 139
e 10 160
e 10 164
e 10 171
e 10 182
e 10 185
e 10 191
e 10 223
e 10 238
e 10 247
e 10 255
e 10 280
e 11 13
e 11 58
e 11 60
e 11 65
e 11 71
e 11 110
e 11 112
e 11 122
e 11 123
e 11 129
e 11 141
e 11 148
e 11 151
e 11 175
e 11 186
e 11 192
e 11 205
e 11 218
e 11 225
e 11 230
e 11 231
e 11 263
e 11 269
e 11 283
e 12 21
e 12 30
e 12 32
e 12 35
e 12 70
e 12 73
e 12 79
e 12 112
e 12 128
e 12 139
e 12 142
e 12 153
e 12 160
e 12 164
e 12 187
e 12 191
e 12 244
e 12 247
e 12 250
e 12 252
e 12 280
e 12 282
e 13 41
e 13 43
e 13 45
e 13 58
e 13 60
e 13 71
e 13 110
e 13 112
e 13 121
e 13 122
e 13 151
e 13 166
e 13 178
e 13 180
e 13 186
e 13 192
e 13 202
e 13 204
e 13 205
e 13 206
e 13 225
e 13 253
e 13 263
e 14 15
e 14 17
e 14 18
e 14 29
e 14 48
e 14 51
e 14 56
e 14 57
e 14 69
e 14 75
e 14 80
e 14 82
e 14 85
e 14 106
e 14 113
e 14 121
e 14 127
e 14 139
e 14 145
e 14 156
e 14 169
e 14 176
e 14 182
e 14 209
e 14 212
e 14 216
e 14 228
e 14 260
e 14 261
e 15 17
e 15 27
e 15 29
e 15 32
e 15 48
e 15 61
e 15 80
e 15 83
e 15 85
e 15 96
e 15 106
e 15 114
e 15 117
e 15 118
e 15 127
e 15 132
e 15 138
e 15 161
e 15 169
e 15 176
e 15 182
e 15 206
e 15 211
e 15 212
e 15 213
e 15 215
e 15 216
e 15 228
e 15 260
e 15 279
e 15 281
e 16 40
e 16 44
e 16 52
e 16 78
e 16 87
e 16 101
e 16 106
e 16 114
e 16 126
e 16 134
e 16 150
e 16 151
e 16 156
e 16 159
e 16 193
e 16 203
e 16 234
e 16 236
e 16 239
e 16 267
e 16 270
e 16 272
e 16 275
e 16 278
e 17 29
e 17 33
e 17 37
e 17 48
e 17 50
e 17 80
e 17 85
e 17 86
e 17 98
e 17 106
e 17 124
e 17 127
e 17 140
e 17 154
e 17 164
e 17 169
e 17 176
e 17 180
e 17 182
e 17 183
e 17 212
e 17 216
e 17 220
e 17 228
e 17 231
e 17 260
e 17 264
e 18 22
e 18 35
e 18 51
e 18 56
e 18 57
e 18 69
e 18 75
e 18 81
e 18 82
e 18 88
e 18 95
e 18 102
e 18 113
e 18 121
e 18 139
e 18 145
e 18 156
e 18 168
e 18 189
e 18 209
e 18 214
e 18 227
e 18 234
e 18 261
e 18 279
e 18 286
e 19 24
e 19 53
e 19 64
e 19 68
e 19 71
e 19 77
e 19 83
e 19 84
e 19 89
e 19 99
e 19 101
e 19 107
e 19 115
e 19 136
e 19 143
e 19 158
e 19 163
e 19 170
e 19 181
e 19 187
e 19 200
e 19 208
e 19 209
e 19 230
e 19 242
e 19 243
e 19 253
e 19 271
e 20 27
e 20 30
e 20 39
e 20 62
e 20 66
e 20 98
e 20 103
e 20 109
e 20 119
e 20 120
e 20 123
e 20 125
e 20 128
e 20 136
e 20 166
e 20 168
e 20 169
e 20 172
e 20 196
e 20 198
e 20 255
e 20 257
e 20 262
e 20 265
e 20 271
e 20 275
e 21 32
e 21 34
e 21 70
e 21 79
e 21 80
e 21 87
e 21 105
e 21 108
e 21 112
e 21 128
e 21 139
e 21 146
e 21 160
e 21 164
e 21 191
e 21 241
e 21 247
e 21 280
e 21 286
e 21 287
e 22 23
e 22 25
e 22 26
e 22 35
e 22 38
e 22 53
e 22 59
e 22 81
e 22 88
e 22 95
e 22 97
e 22 102
e 22 168
e 22 171
e 22 182
e 22 185
e 22 189
e 22 214
e 22 223
e 22 227
e 22 234
e 22 238
e 22 255
e 22 279
e 22 286
e 23 25
e 23 26
e 23 38
e 23 51
e 23 53
e 23 59
e 23 77
e 23 97
e 23 105
e 23 154
e 23 165
e 23 171
e 23 182
e 23 185
e 23 205
e 23 222
e 23 223
e 23 226
e 23 236
e 23 238
e 23 248
e 23 255
e 23 259
e 24 37
e 24 42
e 24 55
e 24 64
e 24 66
e 24 68
e 24 77
e 24 89
e 24 115
e 24 136
e 24 138
e 24 143
e 24 158
e 24 163
e 24 173
e 24 181
e 24 184
e 24 221
e 24 230
e 24 233
e 24 242
e 24 243
e 24 245
e 24 252
e 24 253
e 25 26
e 25 38
e 25 46
e 25 53
e 25 54
e 25 59
e 25 82
e 25 86
e 25 91
e 25 97
e 25 110
e 25 115
e 25 130
e 25 155
e 25 161
e 25 171
e 25 182
e 25 185
e 25 223
e 25 238
e 25 255
e 25 258
e 25 282
e 26 38
e 26 53
e 26 58
e 26 59
e 26 89
e 26 97
e 26 111
e 26 124
e 26 149
e 26 171
e 26 182
e 26 185
e 26 188
e 26 213
e 26 219
e 26 223
e 26 224
e 26 238
e 26 255
e 26 278
e 27 30
e 27 32
e 27 61
e 27 62
e 27 83
e 27 96
e 27 98
e 27 103
e 27 109
e 27 114
e 27 117
e 27 118
e 27 120
e 27 132
e 27 136
e 27 138
e 27 161
e 27 172
e 27 196
e 27 206
e 27 211
e 27 213
e 27 215
e 27 255
e 27 257
e 27 262
e 27 279
e 27 281
e 28 42
e 28 47
e 28 52
e 28 59
e 28 63
e 28 65
e 28 72
e 28 73
e 28 93
e 28 102
e 28 108
e 28 127
e 28 130
e 28 135
e 28 143
e 28 200
e 28 204
e 28 207
e 28 211
e 28 259
e 28 268
e 28 280
e 28 284
e 28 288
e 29 36
e 29 41
e 29 48
e 29 70
e 29 80
e 29 81
e 29 85
e 29 93
e 29 106
e 29 127
e 29 159
e 29 169
e 29 172
e 29 173
e 29 176
e 29 182
e 29 188
e 29 195
e 29 208
e 29 212
e 29 216
e 29 222
e 29 228
e 29 249
e 29 260
e 29 273
e 29 283
e 30 35
e 30 62
e 30 73
e 30 98
e 30 103
e 30 109
e 30 120
e 30 136
e 30 142
e 30 153
e 30 172
e 30 187
e 30 196
e 30 244
e 30 250
e 30 252
e 30 255
e 30 257
e 30 262
e 30 282
e 31 34
e 31 47
e 31 57
e 31 60
e 31 62
e 31 74
e 31 84
e 31 96
e 31 116
e 31 133
e 31 134
e 31 142
e 31 144
e 31 152
e 31 162
e 31 175
e 31 185
e 31 198
e 31 232
e 31 235
e 31 237
e 31 243
e 31 260
e 31 264
e 31 270
e 31 273
e 31 274
e 31 276
e 32 61
e 32 70
e 32 79
e 32 83
e 32 96
e 32 112
e 32 114
e 32 117
e 32 118
e 32 128
e 32 132
e 32 138
e 32 139
e 32 160
e 32 161
e 32 164
e 32 191
e 32 206
e 32 211
e 32 213
e 32 215
e 32 247
e 32 279
e 32 280
e 32 281
e 33 36
e 33 37
e 33 38
e 33 50
e 33 67
e 33 68
e 33 76
e 33 86
e 33 98
e 33 104
e 33 124
e 33 125
e 33 133
e 33 140
e 33 145
e 33 154
e 33 164
e 33 180
e 33 183
e 33 220
e 33 231
e 33 241
e 33 250
e 33 264
e 33 266
e 33 281
e 34 57
e 34 60
e 34 80
e 34 87
e 34 96
e 34 105
e 34 108
e 34 134
e 34 142
e 34 144
e 34 146
e 34 152
e 34 162
e 34 185
e 34 198
e 34 237
e 34 241
e 34 243
e 34 264
e 34 273
e 34 274
e 34 286
e 34 287
e 35 73
e 35 81
e 35 88
e 35 95
e 35 102
e 35 142
e 35 153
e 35 168
e 35 187
e 35 189
e 35 214
e 35 227
e 35 234
e 35 244
e 35 250
e 35 252
e 35 279
e 35 282
e 35 286
e 36 38
e 36 41
e 36 67
e 36 68
e 36 70
e 36 76
e 36 81
e 36 93
e 36 104
e 36 125
e 36 133
e 36 145
e 36 159
e 36 172
e 36 173
e 36 188
e 36 195
e 36 208
e 36 222
e 36 241
e 36 249
e 36 250
e 36 266
e 36 273
e 36 281
e 36 283
e 37 42
e 37 50
e 37 55
e 37 66
e 37 86
e 37 98
e 37 124
e 37 138
e 37 140
e 37 154
e 37 164
e 37 173
e 37 180
e 37 183
e 37 184
e 37 220
e 37 221
e 37 231
e 37 233
e 37 245
e 37 252
e 37 264
e 38 53
e 38 59
e 38 67
e 38 68
e 38 76
e 38 97
e 38 104
e 38 125
e 38 133
e 38 145
e 38 171
e 38 182
e 38 185
e 38 223
e 38 238
e 38 241
e 38 250
e 38 255
e 38 266
e 38 281
e 39 50
e 39 64
e 39 66
e 39 113
e 39 118
e 39 119
e 39 123
e 39 125
e 39 128
e 39 150
e 39 153
e 39 166
e 39 168
e 39 169
e 39 192
e 39 198
e 39 199
e 39 210
e 39 249
e 39 256
e 39 265
e 39 268
e 39 271
e 39 275
e 39 285
e 40 52
e 40 55
e 40 87
e 40 92
e 40 94
e 40 114
e 40 120
e 40 126
e 40 129
e 40 151
e 40 152
e 40 156
e 40 159
e 40 174
e 40 203
e 40 207
e 40 214
e 40 216
e 40 251
e 40 266
e 40 270
e 40 272
e 40 275
e 41 43
e 41 45
e 41 70
e 41 81
e 41 93
e 41 121
e 41 159
e 41 166
e 41 172
e 41 173
e 41 178
e 41 180
e 41 188
e 41 195
e 41 202
e 41 204
e 41 206
e 41 208
e 41 222
e 41 249
e 41 253
e 41 273
e 41 283
e 42 52
e 42 55
e 42 65
e 42 66
e 42 102
e 42 127
e 42 130
e 42 135
e 42 138
e 42 173
e 42 184
e 42 200
e 42 204
e 42 221
e 42 233
e 42 245
e 42 252
e 42 259
e 42 268
e 42 280
e 42 288
e 43 45
e 43 100
e 43 104
e 43 121
e 43 144
e 43 157
e 43 166
e 43 170
e 43 176
e 43 178
e 43 179
e 43 180
e 43 189
e 43 194
e 43 202
e 43 204
e 43 206
e 43 248
e 43 253
e 43 258
e 43 269
e 44 49
e 44 56
e 44 74
e 44 78
e 44 94
e 44 97
e 44 101
e 44 106
e 44 122
e 44 131
e 44 134
e 44 146
e 44 150
e 44 163
e 44 177
e 44 179
e 44 193
e 44 195
e 44 215
e 44 234
e 44 236
e 44 239
e 44 246
e 44 267
e 44 278
e 45 72
e 45 76
e 45 90
e 45 121
e 45 137
e 45 141
e 45 166
e 45 178
e 45 180
e 45 197
e 45 202
e 45 204
e 45 206
e 45 219
e 45 227
e 45 233
e 45 247
e 45 253
e 45 257
e 45 285
e 46 54
e 46 82
e 46 86
e 46 91
e 46 99
e 46 103
e 46 110
e 46 115
e 46 130
e 46 131
e 46 147
e 46 155
e 46 161
e 46 184
e 46 212
e 46 218
e 46 226
e 46 240
e 46 258
e 46 272
e 46 282
e 46 284
e 47 59
e 47 62
e 47 63
e 47 72
e 47 73
e 47 74
e 47 84
e 47 93
e 47 108
e 47 116
e 47 133
e 47 143
e 47 175
e 47 207
e 47 211
e 47 232
e 47 235
e 47 260
e 47 270
e 47 276
e 47 284
e 48 49
e 48 80
e 48 85
e 48 91
e 48 95
e 48 106
e 48 109
e 48 111
e 48 127
e 48 162
e 48 169
e 48 176
e 48 182
e 48 190
e 48 199
e 48 212
e 48 216
e 48 221
e 48 228
e 48 260
e 49 56
e 49 74
e 49 91
e 49 94
e 49 95
e 49 97
e 49 109
e 49 111
e 49 122
e 49 131
e 49 146
e 49 162
e 49 163
e 49 177
e 49 179
e 49 190
e 49 195
e 49 199
e 49 215
e 49 221
e 49 246
e 50 64
e 50 86
e 50 98
e 50 113
e 50 118
e 50 124
e 50 140
e 50 150
e 50 153
e 50 154
e 50 164
e 50 180
e 50 183
e 50 192
e 50 199
e 50 210
e 50 220
e 50 231
e 50 249
e 50 256
e 50 264
e 50 268
e 50 285
e 51 56
e 51 57
e 51 69
e 51 75
e 51 77
e 51 82
e 51 105
e 51 113
e 51 121
e 51 139
e 51 145
e 51 154
e 51 156
e 51 165
e 51 205
e 51 209
e 51 222
e 51 226
e 51 236
e 51 248
e 51 259
e 51 261
e 52 65
e 52 87
e 52 102
e 52 114
e 52 126
e 52 127
e 52 130
e 52 135
e 52 151
e 52 156
e 52 159
e 52 200
e 52 203
e 52 204
e 52 259
e 52 268
e 52 270
e 52 272
e 52 275
e 52 280
e 52 288
e 53 59
e 53 71
e 53 83
e 53 84
e 53 97
e 53 99
e 53 101
e 53 107
e 53 170
e 53 171
e 53 182
e 53 185
e 53 187
e 53 200
e 53 208
e 53 209
e 53 223
e 53 238
e 53 255
e 53 271
e 54 67
e 54 82
e 54 86
e 54 91
e 54 110
e 54 115
e 54 130
e 54 149
e 54 155
e 54 161
e 54 165
e 54 191
e 54 196
e 54 201
e 54 202
e 54 210
e 54 217
e 54 228
e 54 237
e 54 246
e 54 254
e 54 258
e 54 277
e 54 282
e 55 66
e 55 92
e 55 94
e 55 120
e 55 129
e 55 138
e 55 152
e 55 173
e 55 174
e 55 184
e 55 207
e 55 214
e 55 216
e 55 221
e 55 233
e 55 245
e 55 251
e 55 252
e 55 266
e 56 57
e 56 69
e 56 74
e 56 75
e 56 82
e 56 94
e 56 97
e 56 113
e 56 121
e 56 122
e 56 131
e 56 139
e 56 145
e 56 146
e 56 156
e 56 163
e 56 177
e 56 179
e 56 195
e 56 209
e 56 215
e 56 246
e 56 261
e 57 60
e 57 69
e 57 75
e 57 82
e 57 96
e 57 113
e 57 121
e 57 134
e 57 139
e 57 142
e 57 144
e 57 145
e 57 152
e 57 156
e 57 162
e 57 185
e 57 198
e 57 209
e 57 237
e 57 243
e 57 261
e 57 264
e 57 273
e 57 274
e 58 60
e 58 71
e 58 89
e 58 110
e 58 111
e 58 112
e 58 122
e 58 124
e 58 149
e 58 151
e 58 186
e 58 188
e 58 192
e 58 205
e 58 213
e 58 219
e 58 224
e 58 225
e 58 263
e 58 278
e 59 63
e 59 72
e 59 73
e 59 93
e 59 97
e 59 108
e 59 143
e 59 171
e 59 182
e 59 185
e 59 207
e 59 211
e 59 223
e 59 238
e 59 255
e 59 284
e 60 71
e 60 96
e 60 110
e 60 112
e 60 122
e 60 134
e 60 142
e 60 144
e 60 151
e 60 152
e 60 162
e 60 185
e 60 186
e 60 192
e 60 198
e 60 205
e 60 225
e 60 237
e 60 243
e 60 263
e 60 264
e 60 273
e 60 274
e 61 75
e 61 83
e 61 96
e 61 114
e 61 117
e 61 118
e 61 119
e 61 132
e 61 138
e 61 157
e 61 158
e 61 161
e 61 171
e 61 174
e 61 186
e 61 197
e 61 201
e 61 206
e 61 211
e 61 213
e 61 215
e 61 220
e 61 239
e 61 276
e 61 279
e 61 281
e 62 74
e 62 84
e 62 98
e 62 103
e 62 109
e 62 116
e 62 120
e 62 133
e 62 136
e 62 172
e 62 175
e 62 196
e 62 232
e 62 235
e 62 255
e 62 257
e 62 260
e 62 262
e 62 270
e 62 276
e 63 72
e 63 73
e 63 88
e 63 93
e 63 108
e 63 126
e 63 143
e 63 148
e 63 160
e 63 167
e 63 178
e 63 207
e 63 211
e 63 224
e 63 245
e 63 274
e 63 284
e 64 68
e 64 77
e 64 89
e 64 113
e 64 115
e 64 118
e 64 136
e 64 143
e 64 150
e 64 153
e 64 158
e 64 163
e 64 181
e 64 192
e 64 199
e 64 210
e 64 230
e 64 242
e 64 243
e 64 249
e 64 253
e 64 256
e 64 268
e 64 285
e 65 102
e 65 123
e 65 127
e 65 129
e 65 130
e 65 135
e 65 141
e 65 148
e 65 175
e 65 200
e 65 204
e 65 218
e 65 230
e 65 231
e 65 259
e 65 268
e 65 269
e 65 280
e 65 283
e 65 288
e 66 119
e 66 123
e 66 125
e 66 128
e 66 138
e 66 166
e 66 168
e 66 169
e 66 173
e 66 184
e 66 198
e 66 221
e 66 233
e 66 245
e 66 252
e 66 265
e 66 271
e 66 275
e 67 68
e 67 76
e 67 104
e 67 125
e 67 133
e 67 145
e 67 149
e 67 165
e 67 191
e 67 196
e 67 201
e 67 202
e 67 210
e 67 217
e 67 228
e 67 237
e 67 241
e 67 246
e 67 250
e 67 254
e 67 266
e 67 277
e 67 281
e 68 76
e 68 77
e 68 89
e 68 104
e 68 115
e 68 125
e 68 133
e 68 136
e 68 143
e 68 145
e 68 158
e 68 163
e 68 181
e 68 230
e 68 241
e 68 242
e 68 243
e 68 250
e 68 253
e 68 266
e 68 281
e 69 75
e 69 78
e 69 82
e 69 90
e 69 92
e 69 113
e 69 116
e 69 117
e 69 121
e 69 135
e 69 139
e 69 145
e 69 156
e 69 167
e 69 181
e 69 183
e 69 190
e 69 194
e 69 209
e 69 217
e 69 238
e 69 261
e 69 263
e 69 265
e 70 79
e 70 81
e 70 93
e 70 112
e 70 128
e 70 139
e 70 159
e 70 160
e 70 164
e 70 172
e 70 173
e 70 188
e 70 191
e 70 195
e 70 208
e 70 222
e 70 247
e 70 249
e 70 273
e 70 280
e 70 283
e 71 83
e 71 84
e 71 99
e 71 101
e 71 107
e 71 110
e 71 112
e 71 122
e 71 151
e 71 170
e 71 186
e 71 187
e 71 192
e 71 200
e 71 205
e 71 208
e 71 209
e 71 225
e 71 263
e 71 271
e 72 73
e 72 76
e 72 90
e 72 93
e 72 108
e 72 137
e 72 141
e 72 143
e 72 197
e 72 207
e 72 211
e 72 219
e 72 227
e 72 233
e 72 247
e 72 257
e 72 284
e 72 285
e 73 93
e 73 108
e 73 142
e 73 143
e 73 153
e 73 187
e 73 207
e 73 211
e 73 244
e 73 250
e 73 252
e 73 282
e 73 284
e 74 84
e 74 94
e 74 97
e 74 116
e 74 122
e 74 131
e 74 133
e 74 146
e 74 163
e 74 175
e 74 177
e 74 179
e 74 195
e 74 215
e 74 232
e 74 235
e 74 246
e 74 260
e 74 270
e 74 276
e 75 82
e 75 113
e 75 119
e 75 121
e 75 139
e 75 145
e 75 156
e 75 157
e 75 158
e 75 171
e 75 174
e 75 186
e 75 197
e 75 201
e 75 209
e 75 220
e 75 239
e 75 261
e 75 276
e 76 90
e 76 104
e 76 125
e 76 133
e 76 137
e 76 141
e 76 145
e 76 197
e 76 219
e 76 227
e 76 233
e 76 241
e 76 247
e 76 250
e 76 257
e 76 266
e 76 281
e 76 285
e 77 89
e 77 105
e 77 115
e 77 136
e 77 143
e 77 154
e 77 158
e 77 163
e 77 165
e 77 181
e 77 205
e 77 222
e 77 226
e 77 230
e 77 236
e 77 242
e 77 243
e 77 248
e 77 253
e 77 259
e 78 90
e 78 92
e 78 101
e 78 106
e 78 116
e 78 117
e 78 134
e 78 135
e 78 150
e 78 167
e 78 181
e 78 183
e 78 190
e 78 193
e 78 194
e 78 217
e 78 234
e 78 236
e 78 238
e 78 239
e 78 263
e 78 265
e 78 267
e 78 278
e 79 85
e 79 107
e 79 112
e 79 128
e 79 139
e 79 155
e 79 160
e 79 164
e 79 177
e 79 191
e 79 203
e 79 229
e 79 247
e 79 256
e 79 262
e 79 280
e 80 85
e 80 87
e 80 105
e 80 106
e 80 108
e 80 127
e 80 146
e 80 169
e 80 176
e 80 182
e 80 212
e 80 216
e 80 228
e 80 241
e 80 260
e 80 286
e 80 287
e 81 88
e 81 93
e 81 95
e 81 102
e 81 159
e 81 168
e 81 172
e 81 173
e 81 188
e 81 189
e 81 195
e 81 208
e 81 214
e 81 222
e 81 227
e 81 234
e 81 249
e 81 273
e 81 279
e 81 283
e 81 286
e 82 86
e 82 91
e 82 110
e 82 113
e 82 115
e 82 121
e 82 130
e 82 139
e 82 145
e 82 155
e 82 156
e 82 161
e 82 209
e 82 258
e 82 261
e 82 282
e 83 84
e 83 96
e 83 99
e 83 101
e 83 107
e 83 114
e 83 117
e 83 118
e 83 132
e 83 138
e 83 161
e 83 170
e 83 187
e 83 200
e 83 206
e 83 208
e 83 209
e 83 211
e 83 213
e 83 215
e 83 271
e 83 279
e 83 281
e 84 99
e 84 101
e 84 107
e 84 116
e 84 133
e 84 170
e 84 175
e 84 187
e 84 200
e 84 208
e 84 209
e 84 232
e 84 235
e 84 260
e 84 270
e 84 271
e 84 276
e 85 106
e 85 107
e 85 127
e 85 155
e 85 169
e 85 176
e 85 177
e 85 182
e 85 203
e 85 212
e 85 216
e 85 228
e 85 229
e 85 256
e 85 260
e 85 262
e 86 91
e 86 98
e 86 110
e 86 115
e 86 124
e 86 130
e 86 140
e 86 154
e 86 155
e 86 161
e 86 164
e 86 180
e 86 183
e 86 220
e 86 231
e 86 258
e 86 264
e 86 282
e 87 105
e 87 108
e 87 114
e 87 126
e 87 146
e 87 151
e 87 156
e 87 159
e 87 203
e 87 241
e 87 270
e 87 272
e 87 275
e 87 286
e 87 287
e 88 95
e 88 102
e 88 126
e 88 148
e 88 160
e 88 167
e 88 168
e 88 178
e 88 189
e 88 214
e 88 224
e 88 227
e 88 234
e 88 245
e 88 274
e 88 279
e 88 286
e 89 111
e 89 115
e 89 124
e 89 136
e 89 143
e 89 149
e 89 158
e 89 163
e 89 181
e 89 188
e 89 213
e 89 219
e 89 224
e 89 230
e 89 242
e 89 243
e 89 253
e 89 278
e 90 92
e 90 116
e 90 117
e 90 135
e 90 137
e 90 141
e 90 167
e 90 181
e 90 183
e 90 190
e 90 194
e 90 197
e 90 217
e 90 219
e 90 227
e 90 233
e 90 238
e 90 247
e 90 257
e 90 263
e 90 265
e 90 285
e 91 95
e 91 109
e 91 110
e 91 111
e 91 115
e 91 130
e 91 155
e 91 161
e 91 162
e 91 190
e 91 199
e 91 221
e 91 258
e 91 282
e 92 94
e 92 116
e 92 117
e 92 120
e 92 129
e 92 135
e 92 152
e 92 167
e 92 174
e 92 181
e 92 183
e 92 190
e 92 194
e 92 207
e 92 214
e 92 216
e 92 217
e 92 238
e 92 251
e 92 263
e 92 265
e 92 266
e 93 108
e 93 143
e 93 159
e 93 172
e 93 173
e 93 188
e 93 195
e 93 207
e 93 208
e 93 211
e 93 222
e 93 249
e 93 273
e 93 283
e 93 284
e 94 97
e 94 120
e 94 122
e 94 129
e 94 131
e 94 146
e 94 152
e 94 163
e 94 174
e 94 177
e 94 179
e 94 195
e 94 207
e 94 214
e 94 215
e 94 216
e 94 246
e 94 251
e 94 266
e 95 102
e 95 109
e 95 111
e 95 162
e 95 168
e 95 189
e 95 190
e 95 199
e 95 214
e 95 221
e 95 227
e 95 234
e 95 279
e 95 286
e 96 114
e 96 117
e 96 118
e 96 132
e 96 134
e 96 138
e 96 142
e 96 144
e 96 152
e 96 161
e 96 162
e 96 185
e 96 198
e 96 206
e 96 211
e 96 213
e 96 215
e 96 237
e 96 243
e 96 264
e 96 273
e 96 274
e 96 279
e 96 281
e 97 122
e 97 131
e 97 146
e 97 163
e 97 171
e 97 177
e 97 179
e 97 182
e 97 185
e 97 195
e 97 215
e 97 223
e 97 238
e 97 246
e 97 255
e 98 103
e 98 109
e 98 120
e 98 124
e 98 136
e 98 140
e 98 154
e 98 164
e 98 172
e 98 180
e 98 183
e 98 196
e 98 220
e 98 231
e 98 255
e 98 257
e 98 262
e 98 264
e 99 101
e 99 103
e 99 107
e 99 131
e 99 147
e 99 170
e 99 184
e 99 187
e 99 200
e 99 208
e 99 209
e 99 212
e 99 218
e 99 226
e 99 240
e 99 271
e 99 272
e 99 284
e 100 104
e 100 137
e 100 144
e 100 157
e 100 170
e 100 176
e 100 179
e 100 189
e 100 193
e 100 194
e 100 225
e 100 235
e 100 240
e 100 248
e 100 254
e 100 258
e 100 269
e 100 287
e 100 288
e 101 106
e 101 107
e 101 134
e 101 150
e 101 170
e 101 187
e 101 193
e 101 200
e 101 208
e 101 209
e 101 234
e 101 236
e 101 239
e 101 267
e 101 271
e 101 278
e 102 127
e 102 130
e 102 135
e 102 168
e 102 189
e 102 200
e 102 204
e 102 214
e 102 227
e 102 234
e 102 259
e 102 268
e 102 279
e 102 280
e 102 286
e 102 288
e 103 109
e 103 120
e 103 131
e 103 136
e 103 147
e 103 172
e 103 184
e 103 196
e 103 212
e 103 218
e 103 226
e 103 240
e 103 255
e 103 257
e 103 262
e 103 272
e 103 284
e 104 125
e 104 133
e 104 144
e 104 145
e 104 157
e 104 170
e 104 176
e 104 179
e 104 189
e 104 194
e 104 241
e 104 248
e 104 250
e 104 258
e 104 266
e 104 269
e 104 281
e 105 108
e 105 146
e 105 154
e 105 165
e 105 205
e 105 222
e 105 226
e 105 236
e 105 241
e 105 248
e 105 259
e 105 286
e 105 287
e 106 127
e 106 134
e 106 150
e 106 169
e 106 176
e 106 182
e 106 193
e 106 212
e 106 216
e 106 228
e 106 234
e 106 236
e 106 239
e 106 260
e 106 267
e 106 278
e 107 155
e 107 170
e 107 177
e 107 187
e 107 200
e 107 203
e 107 208
e 107 209
e 107 229
e 107 256
e 107 262
e 107 271
e 108 143
e 108 146
e 108 207
e 108 211
e 108 241
e 108 284
e 108 286
e 108 287
e 109 111
e 109 120
e 109 136
e 109 162
e 109 172
e 109 190
e 109 196
e 109 199
e 109 221
e 109 255
e 109 257
e 109 262
e 110 112
e 110 115
e 110 122
e 110 130
e 110 151
e 110 155
e 110 161
e 110 186
e 110 192
e 110 205
e 110 225
e 110 258
e 110 263
e 110 282
e 111 124
e 111 149
e 111 162
e 111 188
e 111 190
e 111 199
e 111 213
e 111 219
e 111 221
e 111 224
e 111 278
e 112 122
e 112 128
e 112 139
e 112 151
e 112 160
e 112 164
e 112 186
e 112 191
e 112 192
e 112 205
e 112 225
e 112 247
e 112 263
e 112 280
e 113 118
e 113 121
e 113 139
e 113 145
e 113 150
e 113 153
e 113 156
e 113 192
e 113 199
e 113 209
e 113 210
e 113 249
e 113 256
e 113 261
e 113 268
e 113 285
e 114 117
e 114 118
e 114 126
e 114 132
e 114 138
e 114 151
e 114 156
e 114 159
e 114 161
e 114 203
e 114 206
e 114 211
e 114 213
e 114 215
e 114 270
e 114 272
e 114 275
e 114 279
e 114 281
e 115 130
e 115 136
e 115 143
e 115 155
e 115 158
e 115 161
e 115 163
e 115 181
e 115 230
e 115 242
e 115 243
e 115 253
e 115 258
e 115 282
e 116 117
e 116 133
e 116 135
e 116 167
e 116 175
e 116 181
e 116 183
e 116 190
e 116 194
e 116 217
e 116 232
e 116 235
e 116 238
e 116 260
e 116 263
e 116 265
e 116 270
e 116 276
e 117 118
e 117 132
e 117 135
e 117 138
e 117 161
e 117 167
e 117 181
e 117 183
e 117 190
e 117 194
e 117 206
e 117 211
e 117 213
e 117 215
e 117 217
e 117 238
e 117 263
e 117 265
e 117 279
e 117 281
e 118 132
e 118 138
e 118 150
e 118 153
e 118 161
e 118 192
e 118 199
e 118 206
e 118 210
e 118 211
e 118 213
e 118 215
e 118 249
e 118 256
e 118 268
e 118 279
e 118 281
e 118 285
e 119 123
e 119 125
e 119 128
e 119 157
e 119 158
e 119 166
e 119 168
e 119 169
e 119 171
e 119 174
e 119 186
e 119 197
e 119 198
e 119 201
e 119 220
e 119 239
e 119 265
e 119 271
e 119 275
e 119 276
e 120 129
e 120 136
e 120 152
e 120 172
e 120 174
e 120 196
e 120 207
e 120 214
e 120 216
e 120 251
e 120 255
e 120 257
e 120 262
e 120 266
e 121 139
e 121 145
e 121 156
e 121 166
e 121 178
e 121 180
e 121 202
e 121 204
e 121 206
e 121 209
e 121 253
e 121 261
e 122 131
e 122 146
e 122 151
e 122 163
e 122 177
e 122 179
e 122 186
e 122 192
e 122 195
e 122 205
e 122 215
e 122 225
e 122 246
e 122 263
e 123 125
e 123 128
e 123 129
e 123 141
e 123 148
e 123 166
e 123 168
e 123 169
e 123 175
e 123 198
e 123 218
e 123 230
e 123 231
e 123 265
e 123 269
e 123 271
e 123 275
e 123 283
e 124 140
e 124 149
e 124 154
e 124 164
e 124 180
e 124 183
e 124 188
e 124 213
e 124 219
e 124 220
e 124 224
e 124 231
e 124 264
e 124 278
e 125 128
e 125 133
e 125 145
e 125 166
e 125 168
e 125 169
e 125 198
e 125 241
e 125 250
e 125 265
e 125 266
e 125 271
e 125 275
e 125 281
e 126 148
e 126 151
e 126 156
e 126 159
e 126 160
e 126 167
e 126 178
e 126 203
e 126 224
e 126 245
e 126 270
e 126 272
e 126 274
e 126 275
e 127 130
e 127 135
e 127 169
e 127 176
e 127 182
e 127 200
e 127 204
e 127 212
e 127 216
e 127 228
e 127 259
e 127 260
e 127 268
e 127 280
e 127 288
e 128 139
e 128 160
e 128 164
e 128 166
e 128 168
e 128 169
e 128 191
e 128 198
e 128 247
e 128 265
e 128 271
e 128 275
e 128 280
e 129 141
e 129 148
e 129 152
e 129 174
e 129 175
e 129 207
e 129 214
e 129 216
e 129 218
e 129 230
e 129 231
e 129 251
e 129 266
e 129 269
e 129 283
e 130 135
e 130 155
e 130 161
e 130 200
e 130 204
e 130 258
e 130 259
e 130 268
e 130 280
e 130 282
e 130 288
e 131 146
e 131 147
e 131 163
e 131 177
e 131 179
e 131 184
e 131 195
e 131 212
e 131 215
e 131 218
e 131 226
e 131 240
e 131 246
e 131 272
e 131 284
e 132 138
e 132 140
e 132 147
e 132 161
e 132 206
e 132 211
e 132 213
e 132 215
e 132 223
e 132 229
e 132 232
e 132 242
e 132 244
e 132 251
e 132 261
e 132 267
e 132 277
e 132 279
e 132 281
e 133 145
e 133 175
e 133 232
e 133 235
e 133 241
e 133 250
e 133 260
e 133 266
e 133 270
e 133 276
e 133 281
e 134 142
e 134 144
e 134 150
e 134 152
e 134 162
e 134 185
e 134 193
e 134 198
e 134 234
e 134 236
e 134 237
e 134 239
e 134 243
e 134 264
e 134 267
e 134 273
e 134 274
e 134 278
e 135 167
e 135 181
e 135 183
e 135 190
e 135 194
e 135 200
e 135 204
e 135 217
e 135 238
e 135 259
e 135 263
e 135 265
e 135 268
e 135 280
e 135 288
e 136 143
e 136 158
e 136 163
e 136 172
e 136 181
e 136 196
e 136 230
e 136 242
e 136 243
e 136 253
e 136 255
e 136 257
e 136 262
e 137 141
e 137 193
e 137 197
e 137 219
e 137 225
e 137 227
e 137 233
e 137 235
e 137 240
e 137 247
e 137 254
e 137 257
e 137 285
e 137 287
e 137 288
e 138 161
e 138 173
e 138 184
e 138 206
e 138 211
e 138 213
e 138 215
e 138 221
e 138 233
e 138 245
e 138 252
e 138 279
e 138 281
e 139 145
e 139 156
e 139 160
e 139 164
e 139 191
e 139 209
e 139 247
e 139 261
e 139 280
e 140 147
e 140 154
e 140 164
e 140 180
e 140 183
e 140 220
e 140 223
e 140 229
e 140 231
e 140 232
e 140 242
e 140 244
e 140 251
e 140 261
e 140 264
e 140 267
e 140 277
e 141 148
e 141 175
e 141 197
e 141 218
e 141 219
e 141 227
e 141 230
e 141 231
e 141 233
e 141 247
e 141 257
e 141 269
e 141 283
e 141 285
e 142 144
e 142 152
e 142 153
e 142 162
e 142 185
e 142 187
e 142 198
e 142 237
e 142 243
e 142 244
e 142 250
e 142 252
e 142 264
e 142 273
e 142 274
e 142 282
e 143 158
e 143 163
e 143 181
e 143 207
e 143 211
e 143 230
e 143 242
e 143 243
e 143 253
e 143 284
e 144 152
e 144 157
e 144 162
e 144 170
e 144 176
e 144 179
e 144 185
e 144 189
e 144 194
e 144 198
e 144 237
e 144 243
e 144 248
e 144 258
e 144 264
e 144 269
e 144 273
e 144 274
e 145 156
e 145 209
e 145 241
e 145 250
e 145 261
e 145 266
e 145 281
e 146 163
e 146 177
e 146 179
e 146 195
e 146 215
e 146 241
e 146 246
e 146 286
e 146 287
e 147 184
e 147 212
e 147 218
e 147 223
e 147 226
e 147 229
e 147 232
e 147 240
e 147 242
e 147 244
e 147 251
e 147 261
e 147 267
e 147 272
e 147 277
e 147 284
e 148 160
e 148 167
e 148 175
e 148 178
e 148 218
e 148 224
e 148 230
e 148 231
e 148 245
e 148 269
e 148 274
e 148 283
e 149 165
e 149 188
e 149 191
e 149 196
e 149 201
e 149 202
e 149 210
e 149 213
e 149 217
e 149 219
e 149 224
e 149 228
e 149 237
e 149 246
e 149 254
e 149 277
e 149 278
e 150 153
e 150 192
e 150 193
e 150 199
e 150 210
e 150 234
e 150 236
e 150 239
e 150 249
e 150 256
e 150 267
e 150 268
e 150 278
e 150 285
e 151 156
e 151 159
e 151 186
e 151 192
e 151 203
e 151 205
e 151 225
e 151 263
e 151 270
e 151 272
e 151 275
e 152 162
e 152 174
e 152 185
e 152 198
e 152 207
e 152 214
e 152 216
e 152 237
e 152 243
e 152 251
e 152 264
e 152 266
e 152 273
e 152 274
e 153 187
e 153 192
e 153 199
e 153 210
e 153 244
e 153 249
e 153 250
e 153 252
e 153 256
e 153 268
e 153 282
e 153 285
e 154 164
e 154 165
e 154 180
e 154 183
e 154 205
e 154 220
e 154 222
e 154 226
e 154 231
e 154 236
e 154 248
e 154 259
e 154 264
e 155 161
e 155 177
e 155 203
e 155 229
e 155 256
e 155 258
e 155 262
e 155 282
e 156 159
e 156 203
e 156 209
e 156 261
e 156 270
e 156 272
e 156 275
e 157 158
e 157 170
e 157 171
e 157 174
e 157 176
e 157 179
e 157 186
e 157 189
e 157 194
e 157 197
e 157 201
e 157 220
e 157 239
e 157 248
e 157 258
e 157 269
e 157 276
e 158 163
e 158 171
e 158 174
e 158 181
e 158 186
e 158 197
e 158 201
e 158 220
e 158 230
e 158 239
e 158 242
e 158 243
e 158 253
e 158 276
e 159 172
e 159 173
e 159 188
e 159 195
e 159 203
e 159 208
e 159 222
e 159 249
e 159 270
e 159 272
e 159 273
e 159 275
e 159 283
e 160 164
e 160 167
e 160 178
e 160 191
e 160 224
e 160 245
e 160 247
e 160 274
e 160 280
e 161 206
e 161 211
e 161 213
e 161 215
e 161 258
e 161 279
e 161 281
e 161 282
e 162 185
e 162 190
e 162 198
e 162 199
e 162 221
e 162 237
e 162 243
e 162 264
e 162 273
e 162 274
e 163 177
e 163 179
e 163 181
e 163 195
e 163 215
e 163 230
e 163 242
e 163 243
e 163 246
e 163 253
e 164 180
e 164 183
e 164 191
e 164 220
e 164 231
e 164 247
e 164 264
e 164 280
e 165 191
e 165 196
e 165 201
e 165 202
e 165 205
e 165 210
e 165 217
e 165 222
e 165 226
e 165 228
e 165 236
e 165 237
e 165 246
e 165 248
e 165 254
e 165 259
e 165 277
e 166 168
e 166 169
e 166 178
e 166 180
e 166 198
e 166 202
e 166 204
e 166 206
e 166 253
e 166 265
e 166 271
e 166 275
e 167 178
e 167 181
e 167 183
e 167 190
e 167 194
e 167 217
e 167 224
e 167 238
e 167 245
e 167 263
e 167 265
e 167 274
e 168 169
e 168 189
e 168 198
e 168 214
e 168 227
e 168 234
e 168 265
e 168 271
e 168 275
e 168 279
e 168 286
e 169 176
e 169 182
e 169 198
e 169 212
e 169 216
e 169 228
e 169 260
e 169 265
e 169 271
e 169 275
e 170 176
e 170 179
e 170 187
e 170 189
e 170 194
e 170 200
e 170 208
e 170 209
e 170 248
e 170 258
e 170 269
e 170 271
e 171 174
e 171 182
e 171 185
e 171 186
e 171 197
e 171 201
e 171 220
e 171 223
e 171 238
e 171 239
e 171 255
e 171 276
e 172 173
e 172 188
e 172 195
e 172 196
e 172 208
e 172 222
e 172 249
e 172 255
e 172 257
e 172 262
e 172 273
e 172 283
e 173 184
e 173 188
e 173 195
e 173 208
e 173 221
e 173 222
e 173 233
e 173 245
e 173 249
e 173 252
e 173 273
e 173 283
e 174 186
e 174 197
e 174 201
e 174 207
e 174 214
e 174 216
e 174 220
e 174 239
e 174 251
e 174 266
e 174 276
e 175 218
e 175 230
e 175 231
e 175 232
e 175 235
e 175 260
e 175 269
e 175 270
e 175 276
e 175 283
e 176 179
e 176 182
e 176 189
e 176 194
e 176 212
e 176 216
e 176 228
e 176 248
e 176 258
e 176 260
e 176 269
e 177 179
e 177 195
e 177 203
e 177 215
e 177 229
e 177 246
e 177 256
e 177 262
e 178 180
e 178 202
e 178 204
e 178 206
e 178 224
e 178 245
e 178 253
e 178 274
e 179 189
e 179 194
e 179 195
e 179 215
e 179 246
e 179 248
e 179 258
e 179 269
e 180 183
e 180 202
e 180 204
e 180 206
e 180 220
e 180 231
e 180 253
e 180 264
e 181 183
e 181 190
e 181 194
e 181 217
e 181 230
e 181 238
e 181 242
e 181 243
e 181 253
e 181 263
e 181 265
e 182 185
e 182 212
e 182 216
e 182 223
e 182 228
e 182 238
e 182 255
e 182 260
e 183 190
e 183 194
e 183 217
e 183 220
e 183 231
e 183 238
e 183 263
e 183 264
e 183 265
e 184 212
e 184 218
e 184 221
e 184 226
e 184 233
e 184 240
e 184 245
e 184 252
e 184 272
e 184 284
e 185 198
e 185 223
e 185 237
e 185 238
e 185 243
e 185 255
e 185 264
e 185 273
e 185 274
e 186 192
e 186 197
e 186 201
e 186 205
e 186 220
e 186 225
e 186 239
e 186 263
e 186 276
e 187 200
e 187 208
e 187 209
e 187 244
e 187 250
e 187 252
e 187 271
e 187 282
e 188 195
e 188 208
e 188 213
e 188 219
e 188 222
e 188 224
e 188 249
e 188 273
e 188 278
e 188 283
e 189 194
e 189 214
e 189 227
e 189 234
e 189 248
e 189 258
e 189 269
e 189 279
e 189 286
e 190 194
e 190 199
e 190 217
e 190 221
e 190 238
e 190 263
e 190 265
e 191 196
e 191 201
e 191 202
e 191 210
e 191 217
e 191 228
e 191 237
e 191 246
e 191 247
e 191 254
e 191 277
e 191 280
e 192 199
e 192 205
e 192 210
e 192 225
e 192 249
e 192 256
e 192 263
e 192 268
e 192 285
e 193 225
e 193 234
e 193 235
e 193 236
e 193 239
e 193 240
e 193 254
e 193 267
e 193 278
e 193 287
e 193 288
e 194 217
e 194 238
e 194 248
e 194 258
e 194 263
e 194 265
e 194 269
e 195 208
e 195 215
e 195 222
e 195 246
e 195 249
e 195 273
e 195 283
e 196 201
e 196 202
e 196 210
e 196 217
e 196 228
e 196 237
e 196 246
e 196 254
e 196 255
e 196 257
e 196 262
e 196 277
e 197 201
e 197 219
e 197 220
e 197 227
e 197 233
e 197 239
e 197 247
e 197 257
e 197 276
e 197 285
e 198 237
e 198 243
e 198 264
e 198 265
e 198 271
e 198 273
e 198 274
e 198 275
e 199 210
e 199 221
e 199 249
e 199 256
e 199 268
e 199 285
e 200 204
e 200 208
e 200 209
e 200 259
e 200 268
e 200 271
e 200 280
e 200 288
e 201 202
e 201 210
e 201 217
e 201 220
e 201 228
e 201 237
e 201 239
e 201 246
e 201 254
e 201 276
e 201 277
e 202 204
e 202 206
e 202 210
e 202 217
e 202 228
e 202 237
e 202 246
e 202 253
e 202 254
e 202 277
e 203 229
e 203 256
e 203 262
e 203 270
e 203 272
e 203 275
e 204 206
e 204 253
e 204 259
e 204 268
e 204 280
e 204 288
e 205 222
e 205 225
e 205 226
e 205 236
e 205 248
e 205 259
e 205 263
e 206 211
e 206 213
e 206 215
e 206 253
e 206 279
e 206 281
e 207 211
e 207 214
e 207 216
e 207 251
e 207 266
e 207 284
e 208 209
e 208 222
e 208 249
e 208 271
e 208 273
e 208 283
e 209 261
e 209 271
e 210 217
e 210 228
e 210 237
e 210 246
e 210 249
e 210 254
e 210 256
e 210 268
e 210 277
e 210 285
e 211 213
e 211 215
e 211 279
e 211 281
e 211 284
e 212 216
e 212 218
e 212 226
e 212 228
e 212 240
e 212 260
e 212 272
e 212 284
e 213 215
e 213 219
e 213 224
e 213 278
e 213 279
e 213 281
e 214 216
e 214 227
e 214 234
e 214 251
e 214 266
e 214 279
e 214 286
e 215 246
e 215 279
e 215 281
e 216 228
e 216 251
e 216 260
e 216 266
e 217 228
e 217 237
e 217 238
e 217 246
e 217 254
e 217 263
e 217 265
e 217 277
e 218 226
e 218 230
e 218 231
e 218 240
e 218 269
e 218 272
e 218 283
e 218 284
e 219 224
e 219 227
e 219 233
e 219 247
e 219 257
e 219 278
e 219 285
e 220 231
e 220 239
e 220 264
e 220 276
e 221 233
e 221 245
e 221 252
e 222 226
e 222 236
e 222 248
e 222 249
e 222 259
e 222 273
e 222 283
e 223 229
e 223 232
e 223 238
e 223 242
e 223 244
e 223 251
e 223 255
e 223 261
e 223 267
e 223 277
e 224 245
e 224 274
e 224 278
e 225 235
e 225 240
e 225 254
e 225 263
e 225 287
e 225 288
e 226 236
e 226 240
e 226 248
e 226 259
e 226 272
e 226 284
e 227 233
e 227 234
e 227 247
e 227 257
e 227 279
e 227 285
e 227 286
e 228 237
e 228 246
e 228 254
e 228 260
e 228 277
e 229 232
e 229 242
e 229 244
e 229 251
e 229 256
e 229 261
e 229 262
e 229 267
e 229 277
e 230 231
e 230 242
e 230 243
e 230 253
e 230 269
e 230 283
e 231 264
e 231 269
e 231 283
e 232 235
e 232 242
e 232 244
e 232 251
e 232 260
e 232 261
e 232 267
e 232 270
e 232 276
e 232 277
e 233 245
e 233 247
e 233 252
e 233 257
e 233 285
e 234 236
e 234 239
e 234 267
e 234 278
e 234 279
e 234 286
e 235 240
e 235 254
e 235 260
e 235 270
e 235 276
e 235 287
e 235 288
e 236 239
e 236 248
e 236 259
e 236 267
e 236 278
e 237 243
e 237 246
e 237 254
e 237 264
e 237 273
e 237 274
e 237 277
e 238 255
e 238 263
e 238 265
e 239 267
e 239 276
e 239 278
e 240 254
e 240 272
e 240 284
e 240 287
e 240 288
e 241 250
e 241 266
e 241 281
e 241 286
e 241 287
e 242 243
e 242 244
e 242 251
e 242 253
e 242 261
e 242 267
e 242 277
e 243 253
e 243 264
e 243 273
e 243 274
e 244 250
e 244 251
e 244 252
e 244 261
e 244 267
e 244 277
e 244 282
e 245 252
e 245 274
e 246 254
e 246 277
e 247 257
e 247 280
e 247 285
e 248 258
e 248 259
e 248 269
e 249 256
e 249 268
e 249 273
e 249 283
e 249 285
e 250 252
e 250 266
e 250 281
e 250 282
e 251 261
e 251 266
e 251 267
e 251 277
e 252 282
e 254 277
e 254 287
e 254 288
e 255 257
e 255 262
e 256 262
e 256 268
e 256 285
e 257 262
e 257 285
e 258 269
e 258 282
e 259 268
e 259 280
e 259 288
e 260 270
e 260 276
e 261 267
e 261 277
e 263 265
e 264 273
e 264 274
e 265 271
e 265 275
e 266 281
e 267 277
e 267 278
e 268 280
e 268 285
e 268 288
e 269 283
e 270 272
e 270 275
e 270 276
e 271 275
e 272 275
e 272 284
e 273 274
e 273 283
e 279 281
e 279 286
e 280 288
e 286 287
e 287 288
